DIMACS2
40 94 70 7 0 89 23 145 64 71 29 30 8 118 113 125 146 18 138 72 12 34 57 106 61 75 1 156 27 107 97 56 114 100 90 36 116 26 149 105 109
p edge 160 1219
e 0 124 36.0
e 0 91 21.0
e 0 4 41.0
e 0 43 8.0
e 0 97 27.0
e 0 42 40.0
e 0 69 7.0
e 0 138 41.0
e 1 79 25.0
e 1 70 33.0
e 1 47 8.0
e 1 124 9.0
e 1 101 20.0
e 1 9 30.0
e 1 82 35.0
e 1 118 34.0
e 2 54 1.0
e 2 97 6.0
e 2 122 1.0
e 2 75 18.0
e 2 154 1.0
e 2 125 20.0
e 2 79 1.0
e 2 120 1.0
e 3 53 1.0
e 3 69 1.0
e 3 46 1.0
e 3 110 1.0
e 3 67 1.0
e 3 93 1.0
e 3 4 1.0
e 3 17 1.0
e 4 12 43.0
e 4 141 1.0
e 4 114 28.0
e 4 40 1.0
e 4 32 1.0
e 4 151 1.0
e 4 117 1.0
e 4 66 1.0
e 5 27 24.0
e 5 117 1.0
e 5 140 1.0
e 5 39 1.0
e 5 100 22.0
e 5 75 7.0
e 5 17 1.0
e 5 42 1.0
e 6 106 31.0
e 6 113 7.0
e 6 36 18.0
e 6 104 1.0
e 6 25 1.0
e 6 124 1.0
e 6 136 1.0
e 6 135 1.0
e 7 101 15.0
e 7 85 10.0
e 7 4 35.0
e 7 111 33.0
e 7 47 4.0
e 7 59 34.0
e 7 158 6.0
e 7 154 35.0
e 8 144 43.0
e 8 110 2.0
e 8 39 49.0
e 8 69 48.0
e 8 79 19.0
e 8 6 15.0
e 8 145 38.0
e 9 136 1.0
e 9 154 1.0
e 9 111 1.0
e 9 78 1.0
e 9 98 1.0
e 9 81 1.0
e 9 96 1.0
e 9 92 1.0
e 10 34 19.0
e 10 26 35.0
e 10 116 31.0
e 10 25 1.0
e 10 97 17.0
e 10 28 1.0
e 10 52 1.0
e 10 43 1.0
e 11 143 1.0
e 11 2 1.0
e 11 134 1.0
e 11 86 1.0
e 11 105 22.0
e 11 29 9.0
e 11 130 1.0
e 11 5 1.0
e 12 77 35.0
e 12 79 42.0
e 12 93 2.0
e 12 62 16.0
e 12 24 49.0
e 12 124 14.0
e 12 48 29.0
e 12 30 33.0
e 13 39 1.0
e 13 112 3.0
e 13 124 1.0
e 13 145 29.0
e 13 143 1.0
e 13 7 2.0
e 13 74 1.0
e 13 121 1.0
e 14 43 1.0
e 14 62 1.0
e 14 109 7.0
e 14 152 1.0
e 14 41 1.0
e 14 90 35.0
e 14 111 1.0
e 14 69 1.0
e 15 46 1.0
e 15 76 1.0
e 15 31 1.0
e 15 6 1.0
e 15 129 1.0
e 15 1 38.0
e 15 130 1.0
e 15 116 4.0
e 16 10 1.0
e 16 1 21.0
e 16 27 14.0
e 16 108 1.0
e 16 58 1.0
e 16 43 1.0
e 16 70 8.0
e 16 38 1.0
e 17 107 44.0
e 17 38 1.0
e 17 88 1.0
e 17 108 1.0
e 17 152 1.0
e 17 80 1.0
e 17 8 25.0
e 17 144 1.0
e 18 79 8.0
e 18 28 37.0
e 18 45 47.0
e 18 144 15.0
e 18 24 16.0
e 18 17 31.0
e 18 56 43.0
e 18 10 6.0
e 19 151 1.0
e 19 12 30.0
e 19 144 1.0
e 19 153 1.0
e 19 65 1.0
e 19 28 1.0
e 19 78 1.0
e 19 30 28.0
e 20 30 18.0
e 20 3 1.0
e 20 25 1.0
e 20 122 1.0
e 20 112 2.0
e 20 97 23.0
e 20 158 1.0
e 20 15 1.0
e 21 27 10.0
e 21 86 1.0
e 21 108 1.0
e 21 58 1.0
e 21 47 1.0
e 21 129 1.0
e 21 145 20.0
e 22 11 1.0
e 22 51 1.0
e 22 28 1.0
e 22 114 47.0
e 22 136 1.0
e 22 87 1.0
e 22 132 1.0
e 22 60 1.0
e 23 44 25.0
e 23 97 13.0
e 23 81 14.0
e 23 5 35.0
e 23 148 41.0
e 23 24 25.0
e 23 41 37.0
e 23 16 4.0
e 24 6 1.0
e 24 55 1.0
e 24 96 1.0
e 24 147 1.0
e 24 49 1.0
e 24 87 1.0
e 24 157 2.0
e 24 80 1.0
e 25 149 33.0
e 25 123 1.0
e 25 125 32.0
e 25 151 1.0
e 25 28 1.0
e 25 136 2.0
e 25 99 1.0
e 26 152 20.0
e 26 147 22.0
e 26 123 12.0
e 26 137 46.0
e 26 1 34.0
e 26 53 6.0
e 26 43 33.0
e 26 85 16.0
e 27 111 9.0
e 27 11 49.0
e 27 60 18.0
e 27 67 38.0
e 27 120 23.0
e 27 101 49.0
e 27 0 49.0
e 27 68 32.0
e 28 75 36.0
e 28 26 38.0
e 28 63 1.0
e 28 156 34.0
e 28 128 1.0
e 28 91 1.0
e 28 90 14.0
e 28 111 1.0
e 29 57 15.0
e 29 84 47.0
e 29 132 44.0
e 29 152 20.0
e 29 129 5.0
e 29 67 7.0
e 29 80 31.0
e 29 12 4.0
e 30 98 24.0
e 30 13 19.0
e 30 127 27.0
e 30 35 36.0
e 30 113 19.0
e 30 75 16.0
e 30 18 11.0
e 30 100 4.0
e 31 107 28.0
e 31 103 2.0
e 31 77 1.0
e 31 3 1.0
e 31 65 1.0
e 31 52 1.0
e 31 36 31.0
e 31 130 1.0
e 32 90 33.0
e 32 154 1.0
e 32 68 1.0
e 32 150 1.0
e 32 124 1.0
e 32 139 1.0
e 32 135 1.0
e 32 74 1.0
e 33 110 1.0
e 33 59 1.0
e 33 158 1.0
e 33 88 1.0
e 33 37 1.0
e 33 45 1.0
e 33 138 24.0
e 33 90 17.0
e 34 70 35.0
e 34 68 9.0
e 34 119 27.0
e 34 52 49.0
e 34 33 23.0
e 34 104 44.0
e 34 19 25.0
e 34 98 4.0
e 35 22 1.0
e 35 157 2.0
e 35 54 2.0
e 35 52 1.0
e 35 13 1.0
e 35 118 25.0
e 35 143 1.0
e 36 23 42.0
e 36 13 37.0
e 36 138 3.0
e 36 81 18.0
e 36 137 31.0
e 36 91 22.0
e 36 12 26.0
e 36 60 46.0
e 37 127 1.0
e 37 59 1.0
e 37 152 1.0
e 37 137 1.0
e 37 131 1.0
e 37 98 1.0
e 37 157 1.0
e 38 150 1.0
e 38 125 28.0
e 38 8 33.0
e 38 65 1.0
e 38 147 1.0
e 38 43 1.0
e 38 29 22.0
e 38 122 1.0
e 39 27 35.0
e 39 92 1.0
e 39 89 10.0
e 39 124 1.0
e 39 47 1.0
e 39 24 1.0
e 40 94 16.0
e 40 93 1.0
e 40 56 28.0
e 40 90 13.0
e 40 46 1.0
e 40 82 1.0
e 40 66 1.0
e 40 24 1.0
e 41 69 1.0
e 41 63 1.0
e 41 15 1.0
e 41 59 1.0
e 41 137 1.0
e 41 52 1.0
e 41 40 1.0
e 41 60 1.0
e 42 38 1.0
e 42 147 1.0
e 42 64 14.0
e 42 103 2.0
e 42 134 1.0
e 42 140 1.0
e 42 101 1.0
e 42 19 1.0
e 43 89 6.0
e 43 95 1.0
e 43 139 1.0
e 43 114 30.0
e 43 87 1.0
e 43 65 1.0
e 43 101 1.0
e 43 77 1.0
e 44 113 43.0
e 44 21 1.0
e 44 59 1.0
e 44 10 1.0
e 44 116 10.0
e 44 48 1.0
e 44 100 42.0
e 45 123 1.0
e 45 63 1.0
e 45 127 1.0
e 45 107 40.0
e 45 134 1.0
e 45 94 42.0
e 45 118 38.0
e 45 82 1.0
e 46 8 17.0
e 46 55 1.0
e 46 142 1.0
e 46 86 1.0
e 46 141 2.0
e 46 39 1.0
e 46 23 25.0
e 46 133 1.0
e 47 112 1.0
e 47 65 1.0
e 47 66 1.0
e 47 16 1.0
e 47 3 1.0
e 47 154 1.0
e 47 110 1.0
e 47 62 1.0
e 48 155 1.0
e 48 30 6.0
e 48 109 9.0
e 48 67 1.0
e 48 85 1.0
e 48 136 1.0
e 48 5 1.0
e 48 131 1.0
e 49 108 1.0
e 49 134 1.0
e 49 153 1.0
e 49 141 1.0
e 49 156 12.0
e 49 136 1.0
e 49 68 1.0
e 50 137 1.0
e 50 4 1.0
e 50 156 18.0
e 50 22 3.0
e 50 6 1.0
e 50 87 3.0
e 50 24 2.0
e 51 65 1.0
e 51 113 27.0
e 51 116 28.0
e 51 59 1.0
e 51 90 2.0
e 51 150 1.0
e 51 46 1.0
e 51 77 1.0
e 52 44 1.0
e 52 50 1.0
e 52 28 1.0
e 52 16 1.0
e 52 123 1.0
e 52 9 1.0
e 52 55 1.0
e 52 36 2.0
e 53 114 13.0
e 53 105 49.0
e 53 102 1.0
e 53 149 47.0
e 53 115 1.0
e 53 158 1.0
e 53 83 1.0
e 54 5 2.0
e 54 81 2.0
e 54 99 1.0
e 54 120 1.0
e 54 139 1.0
e 54 17 1.0
e 54 63 1.0
e 55 3 1.0
e 55 25 1.0
e 55 146 29.0
e 55 115 1.0
e 55 106 49.0
e 55 39 1.0
e 55 66 1.0
e 55 59 1.0
e 56 89 25.0
e 56 99 24.0
e 56 14 26.0
e 56 24 9.0
e 56 107 24.0
e 56 1 18.0
e 56 38 30.0
e 57 41 19.0
e 57 23 1.0
e 57 48 5.0
e 57 81 12.0
e 57 97 11.0
e 57 151 26.0
e 57 4 21.0
e 57 13 41.0
e 58 18 43.0
e 58 46 1.0
e 58 150 1.0
e 58 43 1.0
e 58 128 1.0
e 58 137 1.0
e 58 1 7.0
e 58 143 1.0
e 59 46 1.0
e 59 28 1.0
e 59 106 31.0
e 59 36 32.0
e 59 75 2.0
e 59 3 1.0
e 59 68 1.0
e 59 30 21.0
e 60 14 1.0
e 60 8 20.0
e 60 120 1.0
e 60 43 1.0
e 60 29 35.0
e 60 71 17.0
e 60 80 1.0
e 61 99 4.0
e 61 3 46.0
e 61 69 24.0
e 61 156 47.0
e 61 108 7.0
e 61 152 10.0
e 61 44 10.0
e 61 54 28.0
e 62 136 1.0
e 62 117 1.0
e 62 109 44.0
e 62 9 1.0
e 62 21 1.0
e 62 156 2.0
e 62 129 1.0
e 62 144 1.0
e 63 17 1.0
e 63 150 1.0
e 63 42 1.0
e 63 14 1.0
e 63 83 1.0
e 63 27 16.0
e 63 67 1.0
e 63 110 1.0
e 64 117 23.0
e 64 158 34.0
e 64 114 13.0
e 64 24 28.0
e 64 156 31.0
e 64 83 31.0
e 64 55 21.0
e 64 63 29.0
e 65 77 1.0
e 65 102 1.0
e 65 103 2.0
e 65 151 1.0
e 65 140 1.0
e 65 146 30.0
e 65 64 18.0
e 66 90 31.0
e 66 52 1.0
e 66 150 1.0
e 66 93 1.0
e 66 133 1.0
e 66 127 1.0
e 66 65 1.0
e 67 127 1.0
e 67 158 1.0
e 67 157 1.0
e 67 88 1.0
e 67 45 1.0
e 67 121 1.0
e 67 112 1.0
e 67 130 1.0
e 68 23 10.0
e 68 6 1.0
e 68 124 1.0
e 68 42 1.0
e 68 127 1.0
e 68 108 1.0
e 68 33 1.0
e 68 29 36.0
e 69 145 5.0
e 69 43 1.0
e 69 136 1.0
e 69 128 1.0
e 69 59 1.0
e 69 102 1.0
e 69 87 1.0
e 70 11 22.0
e 70 65 30.0
e 70 33 24.0
e 70 40 24.0
e 70 137 14.0
e 70 129 20.0
e 70 126 15.0
e 70 18 26.0
e 71 142 38.0
e 71 150 42.0
e 71 93 32.0
e 71 153 41.0
e 71 140 28.0
e 71 105 32.0
e 71 37 45.0
e 71 35 24.0
e 72 53 2.0
e 72 132 36.0
e 72 22 3.0
e 72 156 48.0
e 72 87 35.0
e 72 67 28.0
e 72 124 45.0
e 72 119 33.0
e 73 75 10.0
e 73 66 1.0
e 73 20 1.0
e 73 140 1.0
e 73 105 3.0
e 73 48 1.0
e 73 148 1.0
e 74 3 1.0
e 74 76 1.0
e 74 126 1.0
e 74 48 1.0
e 74 129 1.0
e 74 110 1.0
e 74 152 1.0
e 74 56 22.0
e 75 120 19.0
e 75 156 11.0
e 75 9 37.0
e 75 19 36.0
e 75 74 16.0
e 75 95 14.0
e 76 100 43.0
e 76 70 36.0
e 76 94 21.0
e 76 97 23.0
e 76 57 32.0
e 76 151 1.0
e 76 11 1.0
e 76 41 1.0
e 77 97 41.0
e 77 140 1.0
e 77 34 41.0
e 77 83 1.0
e 77 99 1.0
e 77 73 1.0
e 77 100 18.0
e 78 71 45.0
e 78 83 1.0
e 78 154 1.0
e 78 140 1.0
e 78 137 1.0
e 78 14 1.0
e 78 51 1.0
e 78 85 1.0
e 79 5 1.0
e 79 24 1.0
e 79 61 48.0
e 79 142 1.0
e 79 129 1.0
e 79 114 35.0
e 79 135 1.0
e 80 22 1.0
e 80 72 11.0
e 80 16 1.0
e 80 54 1.0
e 80 132 1.0
e 80 151 1.0
e 80 7 43.0
e 80 143 1.0
e 81 123 1.0
e 81 130 1.0
e 81 145 10.0
e 81 90 22.0
e 81 89 38.0
e 81 66 1.0
e 81 91 1.0
e 81 32 1.0
e 82 135 1.0
e 82 132 1.0
e 82 98 1.0
e 82 80 1.0
e 82 126 1.0
e 82 37 1.0
e 82 144 1.0
e 82 33 1.0
e 83 94 49.0
e 83 142 1.0
e 83 130 1.0
e 83 10 1.0
e 83 31 1.0
e 83 120 1.0
e 83 95 1.0
e 84 105 42.0
e 84 32 1.0
e 84 47 1.0
e 84 81 1.0
e 84 86 1.0
e 84 16 1.0
e 84 56 45.0
e 85 52 1.0
e 85 11 1.0
e 85 110 1.0
e 85 74 1.0
e 85 45 1.0
e 85 70 49.0
e 85 66 1.0
e 85 35 1.0
e 86 149 19.0
e 86 23 10.0
e 86 61 23.0
e 86 148 1.0
e 86 140 1.0
e 86 25 1.0
e 86 134 1.0
e 86 150 1.0
e 87 133 1.0
e 87 40 1.0
e 87 144 1.0
e 87 23 32.0
e 87 96 1.0
e 87 74 1.0
e 87 1 8.0
e 87 37 1.0
e 88 119 1.0
e 88 6 1.0
e 88 97 11.0
e 88 117 1.0
e 88 123 1.0
e 88 134 1.0
e 88 50 1.0
e 89 90 18.0
e 89 12 48.0
e 89 114 1.0
e 89 19 15.0
e 89 155 28.0
e 89 76 2.0
e 89 29 49.0
e 89 14 49.0
e 90 131 7.0
e 90 48 16.0
e 90 149 30.0
e 90 22 38.0
e 90 116 49.0
e 91 7 33.0
e 91 3 1.0
e 91 135 1.0
e 91 23 5.0
e 91 46 1.0
e 91 149 33.0
e 91 19 1.0
e 91 80 1.0
e 92 61 16.0
e 92 125 6.0
e 92 0 47.0
e 92 93 1.0
e 92 7 25.0
e 92 118 6.0
e 92 57 18.0
e 92 142 1.0
e 93 104 1.0
e 93 123 1.0
e 93 99 1.0
e 93 16 1.0
e 93 26 48.0
e 93 70 35.0
e 93 73 1.0
e 94 69 7.0
e 94 80 18.0
e 94 2 23.0
e 94 0 42.0
e 94 84 40.0
e 94 22 4.0
e 94 102 38.0
e 95 102 1.0
e 95 66 1.0
e 95 131 1.0
e 95 15 1.0
e 95 112 2.0
e 95 88 1.0
e 95 0 25.0
e 95 28 1.0
e 96 111 1.0
e 96 16 1.0
e 96 140 1.0
e 96 33 1.0
e 96 54 1.0
e 96 112 1.0
e 96 144 1.0
e 96 135 1.0
e 97 140 43.0
e 97 121 21.0
e 97 116 27.0
e 97 144 12.0
e 97 86 10.0
e 97 126 5.0
e 97 145 43.0
e 98 64 14.0
e 98 148 1.0
e 98 154 1.0
e 98 47 1.0
e 98 16 1.0
e 98 152 1.0
e 98 74 1.0
e 98 42 1.0
e 99 150 1.0
e 99 98 1.0
e 99 95 1.0
e 99 133 1.0
e 99 141 2.0
e 99 37 1.0
e 99 136 1.0
e 99 81 1.0
e 100 39 29.0
e 100 132 45.0
e 100 153 9.0
e 100 147 20.0
e 100 101 17.0
e 100 27 47.0
e 101 23 44.0
e 101 37 1.0
e 101 64 43.0
e 101 83 1.0
e 101 154 1.0
e 101 61 11.0
e 101 86 1.0
e 102 7 41.0
e 102 96 1.0
e 102 80 1.0
e 102 42 1.0
e 102 114 11.0
e 102 117 1.0
e 102 59 1.0
e 102 153 1.0
e 103 21 3.0
e 103 131 3.0
e 103 33 2.0
e 103 9 1.0
e 103 54 2.0
e 103 102 2.0
e 103 6 1.0
e 103 75 22.0
e 104 37 1.0
e 104 133 1.0
e 104 64 28.0
e 104 4 1.0
e 104 59 1.0
e 104 22 1.0
e 104 89 7.0
e 104 55 1.0
e 105 127 30.0
e 105 56 32.0
e 105 66 31.0
e 105 40 5.0
e 105 135 23.0
e 105 88 21.0
e 105 92 3.0
e 105 98 26.0
e 106 110 38.0
e 106 20 34.0
e 106 34 13.0
e 106 26 35.0
e 106 108 15.0
e 106 66 30.0
e 106 78 29.0
e 106 2 18.0
e 107 158 42.0
e 107 78 14.0
e 107 47 28.0
e 107 149 40.0
e 107 119 28.0
e 107 3 8.0
e 107 97 15.0
e 108 75 22.0
e 108 81 1.0
e 108 67 1.0
e 108 90 47.0
e 108 94 2.0
e 108 51 1.0
e 108 133 1.0
e 109 13 5.0
e 109 30 17.0
e 109 51 2.0
e 109 135 8.0
e 109 100 5.0
e 109 56 36.0
e 109 9 44.0
e 109 16 9.0
e 110 37 1.0
e 110 66 1.0
e 110 25 1.0
e 110 77 1.0
e 110 98 1.0
e 110 152 1.0
e 111 134 1.0
e 111 68 1.0
e 111 129 1.0
e 111 82 1.0
e 111 97 6.0
e 111 149 13.0
e 111 19 1.0
e 111 144 1.0
e 112 33 1.0
e 112 129 2.0
e 112 64 47.0
e 112 41 1.0
e 112 152 2.0
e 112 148 1.0
e 112 15 1.0
e 113 2 3.0
e 113 14 14.0
e 113 152 25.0
e 113 49 32.0
e 113 119 35.0
e 113 11 49.0
e 113 94 13.0
e 113 47 6.0
e 114 59 27.0
e 114 150 18.0
e 114 32 3.0
e 114 88 20.0
e 114 6 35.0
e 114 13 26.0
e 115 71 18.0
e 115 152 1.0
e 115 48 1.0
e 115 62 1.0
e 115 139 1.0
e 115 145 46.0
e 115 64 25.0
e 115 111 1.0
e 116 132 39.0
e 116 33 38.0
e 116 41 25.0
e 116 48 25.0
e 116 130 37.0
e 116 111 41.0
e 116 25 6.0
e 116 57 47.0
e 117 17 1.0
e 117 146 40.0
e 117 29 34.0
e 117 105 24.0
e 117 42 1.0
e 117 87 1.0
e 117 60 1.0
e 117 6 1.0
e 118 110 30.0
e 118 87 32.0
e 118 7 36.0
e 118 64 26.0
e 118 46 41.0
e 118 42 39.0
e 118 69 45.0
e 119 98 1.0
e 119 117 1.0
e 119 95 1.0
e 119 144 1.0
e 119 152 1.0
e 119 110 1.0
e 119 153 1.0
e 119 31 1.0
e 120 64 41.0
e 120 41 1.0
e 120 130 1.0
e 120 34 37.0
e 120 66 1.0
e 120 0 28.0
e 121 123 1.0
e 121 92 1.0
e 121 10 1.0
e 121 109 20.0
e 121 58 1.0
e 121 100 33.0
e 121 41 1.0
e 122 123 1.0
e 122 103 1.0
e 122 39 1.0
e 122 5 1.0
e 122 133 1.0
e 122 118 13.0
e 122 40 1.0
e 122 27 49.0
e 123 108 1.0
e 123 150 1.0
e 123 89 43.0
e 123 71 11.0
e 123 59 1.0
e 123 19 1.0
e 123 100 40.0
e 124 121 1.0
e 124 157 1.0
e 124 142 1.0
e 124 80 1.0
e 124 79 1.0
e 124 122 1.0
e 124 113 19.0
e 124 156 37.0
e 125 150 30.0
e 125 149 46.0
e 125 78 20.0
e 125 37 7.0
e 125 53 25.0
e 125 61 12.0
e 125 156 33.0
e 125 73 15.0
e 126 80 1.0
e 126 54 3.0
e 126 40 1.0
e 126 90 49.0
e 126 118 43.0
e 126 121 1.0
e 126 133 1.0
e 126 142 1.0
e 127 46 1.0
e 127 96 1.0
e 127 23 16.0
e 127 148 1.0
e 127 104 1.0
e 127 10 1.0
e 128 90 35.0
e 128 10 1.0
e 128 33 1.0
e 128 134 1.0
e 128 96 1.0
e 128 127 1.0
e 128 1 30.0
e 128 51 1.0
e 129 123 1.0
e 129 54 1.0
e 129 48 1.0
e 129 102 1.0
e 129 104 1.0
e 129 124 1.0
e 129 119 1.0
e 130 125 41.0
e 130 77 1.0
e 130 155 1.0
e 130 122 1.0
e 130 46 1.0
e 130 36 25.0
e 130 19 1.0
e 130 104 1.0
e 131 71 8.0
e 131 44 1.0
e 131 81 1.0
e 131 108 1.0
e 131 82 2.0
e 131 110 1.0
e 131 56 3.0
e 132 155 1.0
e 132 55 1.0
e 132 94 49.0
e 132 57 18.0
e 132 51 1.0
e 132 154 1.0
e 132 37 1.0
e 133 105 44.0
e 133 90 44.0
e 133 17 1.0
e 133 158 1.0
e 133 26 23.0
e 133 119 1.0
e 133 109 45.0
e 133 74 1.0
e 134 105 29.0
e 134 146 8.0
e 134 76 1.0
e 134 82 1.0
e 134 87 1.0
e 134 96 1.0
e 134 5 1.0
e 134 18 5.0
e 135 155 1.0
e 135 133 1.0
e 135 64 1.0
e 135 70 34.0
e 135 150 1.0
e 135 73 1.0
e 135 131 1.0
e 136 79 1.0
e 136 16 3.0
e 136 11 2.0
e 136 80 1.0
e 136 82 1.0
e 136 37 1.0
e 136 96 1.0
e 137 112 2.0
e 137 20 1.0
e 137 140 1.0
e 137 152 1.0
e 137 65 1.0
e 137 67 1.0
e 137 35 1.0
e 137 18 14.0
e 138 153 25.0
e 138 79 16.0
e 138 158 1.0
e 138 39 24.0
e 138 40 21.0
e 138 152 41.0
e 138 147 48.0
e 138 3 43.0
e 139 48 1.0
e 139 33 1.0
e 139 12 9.0
e 139 73 1.0
e 139 114 24.0
e 139 136 2.0
e 139 58 1.0
e 139 69 1.0
e 140 139 1.0
e 140 37 1.0
e 140 152 1.0
e 140 63 1.0
e 140 151 1.0
e 140 81 1.0
e 140 22 1.0
e 141 96 1.0
e 141 9 1.0
e 141 58 1.0
e 141 28 3.0
e 141 112 2.0
e 141 151 1.0
e 141 106 28.0
e 141 130 3.0
e 142 143 1.0
e 142 138 36.0
e 142 139 1.0
e 142 100 5.0
e 142 11 1.0
e 142 25 1.0
e 142 135 1.0
e 143 3 1.0
e 143 65 1.0
e 143 126 1.0
e 143 73 1.0
e 143 144 1.0
e 143 122 1.0
e 143 85 1.0
e 143 29 36.0
e 144 124 1.0
e 144 70 36.0
e 144 30 31.0
e 144 66 1.0
e 144 16 1.0
e 144 107 43.0
e 144 74 1.0
e 144 84 1.0
e 145 77 39.0
e 145 132 46.0
e 145 86 41.0
e 145 83 38.0
e 145 56 30.0
e 145 120 4.0
e 145 63 34.0
e 145 60 19.0
e 146 6 33.0
e 146 79 2.0
e 146 97 18.0
e 146 38 33.0
e 146 110 16.0
e 146 60 46.0
e 146 143 46.0
e 147 62 1.0
e 147 73 1.0
e 147 90 27.0
e 147 36 3.0
e 147 11 1.0
e 147 149 44.0
e 147 134 1.0
e 148 105 33.0
e 148 42 1.0
e 148 123 1.0
e 148 155 1.0
e 148 87 1.0
e 148 32 1.0
e 148 126 1.0
e 149 92 38.0
e 149 153 20.0
e 149 37 12.0
e 149 5 29.0
e 149 67 24.0
e 149 150 37.0
e 149 31 29.0
e 150 62 1.0
e 150 106 31.0
e 150 49 1.0
e 150 121 1.0
e 150 12 12.0
e 150 57 5.0
e 150 153 1.0
e 151 84 1.0
e 151 134 1.0
e 151 153 1.0
e 151 66 1.0
e 151 29 2.0
e 151 18 46.0
e 151 6 1.0
e 151 5 1.0
e 152 44 1.0
e 152 81 1.0
e 152 46 1.0
e 152 95 1.0
e 152 39 1.0
e 152 54 1.0
e 152 41 1.0
e 153 107 26.0
e 153 39 1.0
e 153 118 35.0
e 153 116 40.0
e 153 61 19.0
e 153 30 41.0
e 153 65 1.0
e 153 20 1.0
e 154 69 1.0
e 154 108 1.0
e 154 74 1.0
e 154 94 38.0
e 154 118 33.0
e 154 152 1.0
e 154 8 8.0
e 154 66 1.0
e 155 59 1.0
e 155 36 23.0
e 155 158 1.0
e 155 154 1.0
e 155 115 1.0
e 155 156 16.0
e 155 138 31.0
e 155 5 1.0
e 156 115 35.0
e 156 114 1.0
e 156 44 44.0
e 156 136 43.0
e 156 38 42.0
e 156 25 1.0
e 156 10 1.0
e 156 83 37.0
e 157 135 2.0
e 157 112 2.0
e 157 82 1.0
e 157 12 33.0
e 157 3 3.0
e 157 133 2.0
e 157 77 2.0
e 157 16 1.0
e 158 27 44.0
e 158 59 1.0
e 158 101 1.0
e 158 80 1.0
e 158 3 1.0
e 158 126 1.0
e 158 68 1.0
e 158 29 44.0
e 159 88 1.0
e 159 149 13.0
e 159 16 1.0
e 159 65 1.0
e 159 6 1.0
e 159 66 2.0
e 159 31 1.0
e 159 33 1.0
